MainID	SubID	S11	S22	S33	S12	S13	S23
1	1	200	0	0	0	0	0